10J3M/DAT/10J3MNLL-4.dat
10 3
26.0514 26.0514
25.7559 25.7559
22.6829 22.6829
25.1282 25.1282
27.5352 27.5352
27.2074 27.2074
21.1927 21.1927
27.3719 27.3719
31.5405 31.5405
33.6095 33.6095
89.3585